# Solution for model conduction_srl_ilp
# Objective value = 3.7997676183905424e+00
Z_634_0_0 0
Z_634_0_1 0
Z_634_0_2 0
Z_634_0_3 0
Z_634_0_4 1
Z_305_1_0 0
Z_305_1_1 0
Z_305_1_2 1
Z_305_1_3 0
Z_305_1_4 0
Z_305_0_0 0
Z_305_0_1 0
Z_305_0_2 0
Z_305_0_3 0
Z_305_0_4 1
Z_600_0_0 0
Z_600_0_1 0
Z_600_0_2 1
Z_600_0_3 0
Z_600_0_4 0
Z_68_0_0 0
Z_68_0_1 0
Z_68_0_2 1
Z_68_0_3 0
Z_68_0_4 0
